
; Deontic logic axioms
(declare-sort Agent 0)
(declare-sort Proposition 0)

; Deontic operators
(declare-fun Obligatory (Agent Proposition) Bool)
(declare-fun Permitted (Agent Proposition) Bool)
(declare-fun Forbidden (Agent Proposition) Bool)

; Consistency axioms
(assert (forall ((a Agent) (p Proposition)) 
    (not (and (Obligatory a p) (Forbidden a p)))))
(assert (forall ((a Agent) (p Proposition))
    (=> (Obligatory a p) (Permitted a p))))

; Formula to prove/check
(obligatory directors act_in_good_faith_and_in_the_best_interests_of_the_corporation)

; Check satisfiability
(check-sat)
(get-model)
